3 
4 
5  03 19 34 49 
6  04 19 34 49 
7  04 19 34 49 
8  04 19 34 49 
9  04 19 34 49 
10  04 19 34 49 
11  04 19 34 49 
12  04 19 34 49 
13  04 21 36 51 
14  06 21 36 51 
15  06 21 36 51 
16  06 21 36 51 
17  06 21 36 51 
18  06 21 36 51 
19  06 19 34 49 
20  04 19 34 49 
21  04 19 34 49 
22  04 21 39 
23  09 
0 
